(set-info :smt-lib-version 2.6)
(set-logic QF_LIA)
(set-info :category "industrial")
(set-info :status sat)
(declare-fun x0 () Int)
(declare-fun x1 () Int)
(declare-fun x10 () Int)
(declare-fun x11 () Int)
(declare-fun x12 () Int)
(declare-fun x13 () Int)
(declare-fun x14 () Int)
(declare-fun x15 () Int)
(declare-fun x16 () Int)
(declare-fun x17 () Int)
(declare-fun x18 () Int)
(declare-fun x19 () Int)
(declare-fun x2 () Int)
(declare-fun x20 () Int)
(declare-fun x21 () Int)
(declare-fun x22 () Int)
(declare-fun x23 () Int)
(declare-fun x24 () Int)
(declare-fun x25 () Int)
(declare-fun x26 () Int)
(declare-fun x27 () Int)
(declare-fun x28 () Int)
(declare-fun x29 () Int)
(declare-fun x3 () Int)
(declare-fun x30 () Int)
(declare-fun x31 () Int)
(declare-fun x32 () Int)
(declare-fun x33 () Int)
(declare-fun x34 () Int)
(declare-fun x4 () Int)
(declare-fun x5 () Int)
(declare-fun x6 () Int)
(declare-fun x7 () Int)
(declare-fun x8 () Int)
(declare-fun x9 () Int)
(assert (let ((?v_94 (* 1 x0)) (?v_98 (* 3 x10)) (?v_1 (* 0 x19)) (?v_2 (* 0 x2)) (?v_4 (* 0 x29)) (?v_42 (* 1 x20)) (?v_33 (* 1 x28)) (?v_43 (* 2 x23)) (?v_82 (* 0 x30)) (?v_5 (* 0 x8)) (?v_8 (* 1 x31))) (let ((?v_89 (+ ?v_5 ?v_8)) (?v_10 (* 0 x0)) (?v_11 (* 0 x1)) (?v_26 (* 0 x10)) (?v_85 (* 1 x12)) (?v_53 (* 0 x13)) (?v_20 (* 1 x14)) (?v_6 (* 0 x17)) (?v_108 (* 2 x21)) (?v_14 (* 0 x18)) (?v_15 (* 0 x23)) (?v_74 (* 1 x27)) (?v_40 (* 0 x3)) (?v_106 (* 0 x31)) (?v_18 (* 0 x4)) (?v_25 (* 0 x5)) (?v_9 (* 0 x7)) (?v_68 (* 0 x9))) (let ((?v_64 (+ ?v_9 (+ ?v_5 ?v_68))) (?v_22 (* 1 x18)) (?v_30 (* 0 x22)) (?v_16 (* 0 x25)) (?v_31 (* 1 x23)) (?v_86 (* 1 x24)) (?v_34 (* 1 x3)) (?v_116 (* 2 x30)) (?v_23 (* 1 x2)) (?v_73 (* 0 x20)) (?v_21 (* 0 x21)) (?v_24 (* 1 x22)) (?v_67 (* 0 x28)) (?v_80 (* 0 x11)) (?v_49 (* 0 x32)) (?v_62 (* 0 x6)) (?v_39 (* 0 x15)) (?v_32 (* 0 x26)) (?v_60 (* 0 x33)) (?v_61 (* 0 x34)) (?v_29 (* 1 x17)) (?v_46 (* 1 x6)) (?v_51 (* 1 x1)) (?v_52 (* 0 x12)) (?v_78 (* 0 x24)) (?v_88 (* 1 x33)) (?v_45 (* 1 x34)) (?v_79 (* 1 x4)) (?v_70 (* 1 x8)) (?v_91 (* 1 x9))) (let ((?v_57 (+ ?v_70 ?v_91)) (?v_63 (* 1 x25)) (?v_90 (* 1 x5)) (?v_114 (* 2 x9)) (?v_58 (* 0 x14)) (?v_81 (* 0 x27)) (?v_55 (* 1 x29)) (?v_107 (+ ?v_25 ?v_9)) (?v_93 (* 1 x16)) (?v_69 (* 1 x32)) (?v_112 (* 1 x10)) (?v_113 (* 2 x32)) (?v_100 (* 0 x16)) (?v_99 (* 1 x15)) (?v_105 (* 2 x6)) (?v_102 (* 1 x13)) (?v_97 (+ ?v_9 ?v_5)) (?v_104 (* 1 x30)) (?v_115 (* 2 x11)) (?v_101 (* 1 x19)) (?v_111 (* 2 x5)) (?v_117 (* 1 x7)) (?v_118 (* 2 x0)) (?v_119 (* 1 x26)) (?v_0 (* (- 2) x11)) (?v_12 (* (- 1) x14)) (?v_7 (* (- 1) x27)) (?v_84 (* (- 1) x32)) (?v_38 (* (- 1) x4)) (?v_13 (* (- 1) x9)) (?v_3 (* (- 1) x6)) (?v_71 (* (- 1) x10)) (?v_48 (* (- 1) x15)) (?v_17 (* (- 1) x33)) (?v_56 (* (- 1) x5)) (?v_19 (* (- 1) x12)) (?v_54 (* (- 1) x26)) (?v_44 (* (- 1) x31)) (?v_50 (* (- 1) x0)) (?v_27 (* (- 1) x16)) (?v_28 (* (- 1) x29)) (?v_41 (* (- 1) x8)) (?v_35 (* (- 1) x7))) (let ((?v_103 (+ ?v_46 ?v_35)) (?v_36 (* (- 1) x11)) (?v_37 (* (- 1) x2)) (?v_95 (* (- 1) x21)) (?v_92 (* (- 1) x1)) (?v_47 (* (- 1) x13)) (?v_76 (* (- 1) x17)) (?v_59 (* (- 1) x19)) (?v_83 (* (- 1) x28)) (?v_75 (* (- 1) x30)) (?v_110 (* (- 1) x25)) (?v_77 (* (- 1) x3)) (?v_66 (* (- 1) x34)) (?v_65 (* (- 1) x20)) (?v_72 (* (- 1) x24)) (?v_87 (* (- 1) x18)) (?v_109 (* (- 2) x32)) (?v_96 (* (- 1) x23))) (and (<= (+ ?v_94 (+ ?v_98 (+ ?v_0 (+ ?v_12 (+ ?v_1 (+ ?v_2 (+ ?v_7 (+ ?v_84 (+ ?v_38 (+ ?v_13 (+ ?v_4 (+ (* 2 x17) (+ ?v_3 (+ ?v_42 (+ ?v_33 (+ ?v_43 (+ ?v_82 ?v_89))))))))))))))))) 1) (<= (+ ?v_10 (+ ?v_11 (+ ?v_26 (+ ?v_0 (+ ?v_85 (+ ?v_53 (+ ?v_20 (+ ?v_6 (+ ?v_1 (+ ?v_2 (+ ?v_108 (+ ?v_3 (+ ?v_14 (+ ?v_15 (+ ?v_4 (+ ?v_74 (+ ?v_40 (+ ?v_106 (+ ?v_18 (+ ?v_25 ?v_64)))))))))))))))))))) 1) (<= (+ ?v_71 (+ ?v_0 (+ ?v_48 (+ ?v_6 (+ ?v_22 (+ (* (- 2) x20) (+ ?v_30 (+ ?v_7 (+ ?v_17 (+ (* 1 x21) (+ ?v_3 (+ ?v_16 (+ ?v_5 (+ ?v_31 (+ ?v_56 (+ ?v_86 (+ ?v_34 (+ ?v_8 (+ ?v_116 ?v_9))))))))))))))))))) 1) (<= (+ ?v_10 (+ ?v_11 (+ ?v_19 (+ ?v_12 (+ ?v_23 (+ ?v_54 (+ (* (- 2) x27) (+ ?v_13 (+ ?v_14 (+ ?v_73 (+ ?v_21 (+ ?v_24 (+ ?v_15 (+ ?v_16 (+ ?v_67 (+ (* (- 2) x30) (+ ?v_44 (+ ?v_17 (+ ?v_80 (+ ?v_49 (+ ?v_18 ?v_62))))))))))))))))))))) 1) (<= (+ ?v_50 (+ ?v_11 (+ (* (- 3) x11) (+ ?v_19 (+ ?v_20 (+ ?v_27 (+ ?v_28 (+ ?v_39 (+ ?v_21 (+ ?v_32 (+ ?v_60 (+ ?v_61 (+ ?v_18 (+ ?v_29 (+ ?v_22 (+ ?v_23 (+ ?v_24 (+ ?v_41 (+ ?v_15 (+ ?v_25 ?v_103)))))))))))))))))))) 1) (<= (+ ?v_51 (+ ?v_26 (+ ?v_36 (+ ?v_52 (+ ?v_27 (+ ?v_37 (+ ?v_95 (+ ?v_28 (+ ?v_29 (+ ?v_14 (+ ?v_30 (+ ?v_31 (+ ?v_78 (+ ?v_32 (+ ?v_33 (+ ?v_34 (+ ?v_88 (+ ?v_45 (+ ?v_79 (+ ?v_35 ?v_57)))))))))))))))))))) 0) (<= (+ ?v_92 (+ ?v_36 (+ ?v_47 (+ ?v_27 (+ ?v_37 (+ ?v_30 (+ ?v_32 (+ ?v_17 (+ ?v_38 (+ ?v_39 (+ ?v_40 (+ ?v_41 (+ ?v_42 (+ ?v_63 (+ ?v_43 (+ ?v_44 (+ ?v_45 (+ ?v_90 (+ ?v_46 ?v_114))))))))))))))))))) 1) (<= (+ ?v_10 (+ ?v_26 (+ ?v_36 (+ ?v_47 (+ ?v_58 (+ ?v_48 (+ ?v_76 (+ ?v_59 (+ ?v_83 (+ ?v_14 (+ ?v_23 (+ ?v_81 (+ ?v_55 (+ ?v_43 (+ ?v_75 (+ ?v_49 (+ ?v_18 (+ ?v_45 (+ ?v_3 (+ ?v_41 (+ ?v_13 ?v_107))))))))))))))))))))) (- 1)) (<= (+ ?v_50 (+ ?v_51 (+ (* (- 2) x21) (+ (* 2 x10) (+ ?v_36 (+ ?v_52 (+ ?v_53 (+ ?v_39 (+ ?v_93 (+ ?v_110 (+ ?v_54 (+ ?v_55 (+ ?v_77 (+ ?v_69 (+ ?v_17 (+ ?v_66 (+ ?v_18 (+ ?v_56 (+ ?v_9 ?v_57))))))))))))))))))) 0) (<= (+ ?v_10 (+ ?v_51 (+ ?v_47 (+ ?v_58 (+ ?v_59 (+ ?v_112 (+ ?v_39 (+ ?v_6 (+ ?v_14 (+ ?v_65 (+ ?v_21 (+ ?v_24 (+ ?v_31 (+ ?v_72 (+ ?v_54 (+ ?v_33 (+ ?v_40 (+ ?v_113 (+ ?v_60 (+ ?v_61 (+ ?v_18 (+ ?v_62 (+ ?v_63 ?v_64))))))))))))))))))))))) 0) (<= (+ (* (- 2) x4) (+ ?v_50 (+ ?v_11 (+ ?v_47 (+ ?v_100 (+ ?v_1 (+ ?v_2 (+ ?v_99 (+ ?v_29 (+ ?v_65 (+ ?v_66 (+ ?v_32 (+ ?v_67 (+ ?v_4 (+ ?v_40 (+ ?v_60 (+ ?v_68 (+ ?v_31 (+ ?v_63 (+ ?v_44 (+ ?v_69 (+ ?v_56 (+ ?v_105 ?v_70))))))))))))))))))))))) 0) (<= (+ ?v_10 (+ ?v_11 (+ ?v_71 (+ ?v_52 (+ ?v_102 (+ ?v_87 (+ ?v_72 (+ ?v_73 (+ ?v_24 (+ ?v_16 (+ ?v_67 (+ ?v_4 (+ ?v_74 (+ ?v_34 (+ ?v_75 (+ ?v_49 (+ ?v_18 (+ ?v_45 (+ ?v_25 (+ ?v_62 ?v_97)))))))))))))))))))) 0) (<= (+ ?v_50 (+ ?v_71 (+ ?v_53 (+ ?v_48 (+ ?v_27 (+ ?v_76 (+ ?v_21 (+ ?v_30 (+ ?v_22 (+ ?v_77 (+ ?v_3 (+ ?v_15 (+ ?v_78 (+ ?v_16 (+ ?v_42 (+ ?v_74 (+ (* 2 x28) (+ ?v_44 (+ ?v_79 (+ ?v_35 (+ ?v_41 ?v_68))))))))))))))))))))) 0) (<= (+ ?v_51 (+ ?v_71 (+ ?v_76 (+ ?v_65 (+ ?v_72 (+ ?v_38 (+ ?v_35 (+ ?v_80 (+ ?v_23 (+ ?v_21 (+ ?v_81 (+ ?v_4 (+ ?v_68 (+ ?v_31 (+ ?v_63 (+ ?v_33 (+ (* 2 x26) (+ ?v_34 (+ ?v_82 (+ ?v_69 (+ ?v_45 (+ ?v_25 ?v_8)))))))))))))))))))))) 0) (<= (+ ?v_11 (+ ?v_47 (+ ?v_12 (+ ?v_26 (+ ?v_48 (+ ?v_27 (+ ?v_83 (+ ?v_84 (+ ?v_35 (+ ?v_80 (+ ?v_85 (+ ?v_6 (+ ?v_14 (+ ?v_1 (+ ?v_2 (+ ?v_21 (+ ?v_24 (+ ?v_15 (+ ?v_55 (+ ?v_40 (+ ?v_62 (+ ?v_5 (+ ?v_86 (+ ?v_104 ?v_8)))))))))))))))))))))))) 0) (<= (+ ?v_109 (+ ?v_47 (+ ?v_26 (+ ?v_48 (+ ?v_27 (+ ?v_87 (+ ?v_1 (+ ?v_54 (+ ?v_21 (+ ?v_15 (+ ?v_63 (+ ?v_74 (+ ?v_34 (+ ?v_75 (+ ?v_61 (+ ?v_18 (+ ?v_88 (+ ?v_56 (+ ?v_35 (+ ?v_5 (+ ?v_68 ?v_115))))))))))))))))))))) 0) (<= (+ ?v_10 (+ ?v_51 (+ ?v_47 (+ ?v_96 (+ ?v_7 (+ ?v_83 (+ ?v_17 (+ ?v_13 (+ ?v_80 (+ ?v_52 (+ ?v_6 (+ ?v_1 (+ ?v_22 (+ ?v_73 (+ ?v_21 (+ (* 2 x22) (+ ?v_16 (+ ?v_49 (+ ?v_61 (+ ?v_55 (+ ?v_34 ?v_89))))))))))))))))))))) 0) (<= (+ (* (- 2) x14) (+ ?v_11 (+ ?v_7 (+ ?v_83 (+ ?v_80 (+ ?v_39 (+ ?v_101 (+ ?v_2 (+ ?v_21 (+ ?v_30 (+ ?v_22 (+ ?v_16 (+ ?v_32 (+ ?v_4 (+ ?v_49 (+ ?v_61 (+ ?v_18 (+ ?v_5 (+ ?v_42 (+ ?v_31 (+ ?v_82 (+ ?v_88 (+ ?v_90 ?v_91))))))))))))))))))))))) 0) (<= (+ ?v_92 (+ ?v_12 (+ ?v_48 (+ ?v_66 (+ ?v_3 (+ ?v_80 (+ (* 2 x12) (+ ?v_93 (+ ?v_6 (+ ?v_21 (+ ?v_30 (+ ?v_32 (+ ?v_81 (+ ?v_67 (+ ?v_4 (+ ?v_22 (+ ?v_5 (+ ?v_8 (+ ?v_69 (+ ?v_88 (+ (* 2 x4) ?v_9))))))))))))))))))))) 0) (<= (+ ?v_94 (+ ?v_51 (+ ?v_76 (+ ?v_26 (+ ?v_65 (+ ?v_95 (+ ?v_96 (+ ?v_17 (+ ?v_80 (+ ?v_53 (+ ?v_93 (+ ?v_14 (+ ?v_1 (+ ?v_30 (+ ?v_16 (+ ?v_32 (+ ?v_33 (+ ?v_4 (+ ?v_34 (+ ?v_69 (+ ?v_79 (+ ?v_25 (+ ?v_46 ?v_97))))))))))))))))))))))) (- 1)) (<= (+ ?v_12 (+ ?v_59 (+ (* (- 2) x34) (+ ?v_10 (+ ?v_51 (+ ?v_98 (+ ?v_96 (+ ?v_72 (+ ?v_28 (+ ?v_84 (+ ?v_3 (+ ?v_80 (+ ?v_52 (+ ?v_2 (+ ?v_30 (+ ?v_67 (+ ?v_60 (+ ?v_68 (+ ?v_99 (+ ?v_29 (+ ?v_16 (+ ?v_9 ?v_70)))))))))))))))))))))) (- 1)) (<= (+ ?v_50 (+ ?v_11 (+ ?v_47 (+ ?v_26 (+ ?v_48 (+ ?v_65 (+ ?v_75 (+ ?v_80 (+ ?v_20 (+ ?v_100 (+ ?v_6 (+ ?v_21 (+ ?v_32 (+ ?v_67 (+ ?v_4 (+ ?v_62 (+ ?v_43 (+ (* 2 x24) (+ ?v_111 ?v_117))))))))))))))))))) 0) (<= (+ (* (- 2) x9) (+ ?v_50 (+ ?v_11 (+ ?v_26 (+ ?v_96 (+ ?v_77 (+ ?v_44 (+ ?v_80 (+ ?v_52 (+ ?v_20 (+ ?v_101 (+ ?v_2 (+ ?v_30 (+ ?v_4 (+ ?v_86 (+ ?v_82 (+ ?v_49 (+ ?v_18 (+ ?v_25 (+ ?v_62 ?v_70)))))))))))))))))))) 0) (<= (+ (* (- 2) x1) (+ ?v_52 (+ ?v_58 (+ ?v_102 (+ ?v_76 (+ ?v_87 (+ ?v_84 (+ ?v_13 (+ ?v_23 (+ ?v_73 (+ ?v_21 (+ ?v_16 (+ ?v_40 (+ ?v_60 (+ ?v_86 (+ ?v_33 (+ ?v_90 ?v_103))))))))))))))))) 0) (<= (+ ?v_10 (+ ?v_51 (+ (* (- 2) x16) (+ ?v_26 (+ ?v_48 (+ ?v_87 (+ ?v_83 (+ ?v_2 (+ ?v_21 (+ ?v_96 (+ ?v_78 (+ ?v_32 (+ ?v_81 (+ ?v_4 (+ ?v_60 (+ ?v_63 (+ ?v_25 (+ ?v_104 ?v_105)))))))))))))))))) 0) (<= (+ ?v_12 (+ ?v_84 (+ ?v_118 (+ ?v_26 (+ ?v_85 (+ ?v_53 (+ ?v_6 (+ ?v_21 (+ ?v_81 (+ ?v_4 (+ ?v_60 (+ ?v_99 (+ ?v_101 (+ ?v_23 (+ ?v_24 (+ ?v_77 (+ ?v_41 (+ ?v_15 (+ ?v_86 (+ ?v_82 (+ ?v_106 (+ ?v_45 ?v_107)))))))))))))))))))))) 0) (<= (+ ?v_94 (+ ?v_47 (+ ?v_26 (+ ?v_52 (+ ?v_100 (+ ?v_6 (+ ?v_14 (+ ?v_30 (+ ?v_96 (+ ?v_67 (+ ?v_61 (+ ?v_41 (+ ?v_82 (+ ?v_68 (+ (* 1 x11) (+ ?v_20 (+ ?v_63 (+ ?v_55 (+ ?v_34 (+ ?v_46 (+ (* 2 x20) (+ ?v_108 ?v_8)))))))))))))))))))))) 0) (<= (+ ?v_10 (+ ?v_11 (+ ?v_47 (+ ?v_20 (+ (* (- 2) x22) (+ ?v_26 (+ ?v_6 (+ ?v_67 (+ ?v_4 (+ ?v_49 (+ ?v_18 (+ ?v_62 (+ ?v_68 (+ ?v_99 (+ ?v_22 (+ (* 2 x19) (+ ?v_78 (+ ?v_42 (+ ?v_119 (+ (* (- 2) x31) (+ ?v_82 (+ ?v_90 (+ ?v_35 ?v_5))))))))))))))))))))))) 1) (<= (+ (* (- 2) x10) (+ ?v_52 (+ ?v_53 (+ ?v_29 (+ (* (- 2) x18) (+ ?v_109 (+ ?v_1 (+ ?v_2 (+ ?v_65 (+ ?v_21 (+ ?v_30 (+ ?v_110 (+ ?v_32 (+ ?v_81 (+ ?v_33 (+ ?v_3 (+ ?v_40 (+ ?v_82 (+ ?v_111 (+ ?v_35 (+ ?v_5 ?v_91))))))))))))))))))))) 1) (<= (+ (* (- 2) x19) (+ ?v_10 (+ (* 2 x1) (+ ?v_19 (+ ?v_47 (+ ?v_112 (+ ?v_48 (+ ?v_66 (+ ?v_100 (+ ?v_14 (+ ?v_21 (+ ?v_24 (+ ?v_78 (+ ?v_16 (+ ?v_32 (+ ?v_42 (+ ?v_33 (+ ?v_82 (+ ?v_113 (+ ?v_79 (+ ?v_62 (+ ?v_35 ?v_70)))))))))))))))))))))) 0) (<= (+ ?v_10 (+ ?v_11 (+ ?v_19 (+ ?v_47 (+ ?v_12 (+ ?v_54 (+ ?v_84 (+ ?v_112 (+ ?v_39 (+ ?v_100 (+ ?v_14 (+ ?v_73 (+ ?v_21 (+ ?v_15 (+ ?v_16 (+ ?v_81 (+ ?v_4 (+ ?v_82 (+ ?v_60 (+ ?v_62 (+ ?v_8 (+ ?v_35 ?v_114)))))))))))))))))))))) 1) (<= (+ ?v_50 (+ ?v_51 (+ ?v_53 (+ ?v_48 (+ ?v_100 (+ ?v_76 (+ ?v_87 (+ ?v_101 (+ ?v_21 (+ ?v_72 (+ ?v_84 (+ ?v_73 (+ ?v_32 (+ ?v_33 (+ ?v_106 (+ ?v_61 (+ ?v_62 (+ ?v_90 (+ ?v_9 (+ ?v_5 (+ ?v_115 ?v_116))))))))))))))))))))) 0) (<= (+ ?v_26 (+ ?v_53 (+ ?v_93 (+ ?v_6 (+ ?v_14 (+ (* (- 2) x5) (+ ?v_65 (+ ?v_95 (+ (* (- 1) x22) (+ ?v_96 (+ ?v_17 (+ ?v_41 (+ ?v_16 (+ ?v_67 (+ ?v_74 (+ ?v_44 (+ ?v_62 (+ ?v_116 (+ ?v_117 ?v_114))))))))))))))))))) 0) (<= (+ ?v_92 (+ ?v_118 (+ ?v_19 (+ ?v_53 (+ ?v_54 (+ ?v_100 (+ ?v_7 (+ ?v_14 (+ ?v_1 (+ ?v_2 (+ ?v_21 (+ ?v_99 (+ ?v_29 (+ ?v_15 (+ ?v_78 (+ ?v_4 (+ ?v_61 (+ ?v_42 (+ ?v_63 ?v_82))))))))))))))))))) 0) (<= (+ ?v_10 (+ ?v_47 (+ ?v_12 (+ ?v_87 (+ ?v_59 (+ ?v_95 (+ ?v_84 (+ ?v_38 (+ ?v_13 (+ ?v_26 (+ ?v_39 (+ ?v_100 (+ ?v_30 (+ ?v_81 (+ ?v_4 (+ ?v_61 (+ ?v_56 (+ ?v_42 (+ ?v_86 (+ ?v_119 (+ ?v_34 (+ (* 3 x25) (+ ?v_75 ?v_70))))))))))))))))))))))) (- 1)))))))))
(check-sat)
(exit)
